105009
0,9,28,13,75,66,19,65,35,25,69,61,79,44,45,53,70,8,76,57,73,31,81,74,39,10,15,32,26,6,16,55,50,71,80,59,46,48,33,56,42,2,11,22,54,41,24,68,14,60,5,78,29,1,37,34,27,7,82,77,40,51,38,62,3,49,64,30,23,18,52,58,67,43,21,4,47,20,17,36,12,72,63,0